NAME : ClusterId_1012 
COMMENT : (Gillet and Johnson) 
TYPE : CVRP 
DIMENSION : 15 
EDGE_WEIGHT_TYPE : EUC_2D 
CAPACITY : 500 
NODE_COORD_SECTION 
1012 336 456 
732 31 63 
88 73 209 
391 204 56 
487 92 464 
192 184 496 
858 91 718 
89 444 216 
738 163 704 
1000 275 716 
957 294 719 
745 594 219 
807 344 760 
409 611 413 
728 647 481 
DEMAND_SECTION 
1012 583
732 46
88 46
391 56
487 32
192 38
858 28
89 38
738 35
1000 37
957 48
745 29
807 39
409 43
728 48
DEPOT_SECTION 
1012
 -1
EOF